<number of tasks>
50

<cycle time>
1000

<order strength>
0.195


<task times>
1 411
2 348
3 420
4 707
5 727
6 540
7 604
8 413
9 649
10 609
11 612
12 439
13 621
14 483
15 733
16 379
17 647
18 559
19 664
20 463
21 517
22 464
23 291
24 443
25 513
26 551
27 564
28 340
29 505
30 330
31 566
32 392
33 518
34 536
35 424
36 276
37 409
38 441
39 622
40 397
41 518
42 350
43 640
44 535
45 525
46 560
47 491
48 282
49 707
50 630

<precedence relations>
1,30
2,10
2,11
4,9
4,16
5,8
5,15
6,12
6,14
7,13
8,30
9,30
10,18
11,17
11,19
11,20
12,29
13,22
15,44
16,21
17,30
18,24
19,25
20,26
21,27
21,29
22,23
22,28
23,30
24,31
25,31
26,32
27,34
28,37
29,33
29,35
29,36
30,38
30,39
30,40
30,41
30,42
31,43
31,44
35,45
41,48
43,47
44,46
46,49
47,50

<end>
